ID_groupA,ID_groupB,ID_groupC,ID_groupD
52281,25851,105170,7643
19464,25851,105170,7643
19464,142747,105170,7643
19464,63310,105170,7643
751,25851,105170,7643
12876,25851,105170,7643
12876,25851,105170,7643
12876,25851,105170,7643
12876,25851,40513,149036
12876,25770,105170,7643
19464,25851,105170,7643
12876,25851,105170,7643
12876,25851,105170,7643
12876,25851,40513,7643
19464,25851,105170,7643
19464,25851,105170,7643
19464,63310,105170,84531
751,25851,105170,7643
52281,25851,105170,7643
52281,25851,105170,7643
19464,25851,105170,7643
52281,25851,40513,149036
52281,25851,105170,7643
19464,25851,105170,7643
52281,25851,105170,7643
52281,25851,105170,7643
52281,25851,40513,69406
19464,142747,105170,7643
19464,63310,105170,84531
19464,25851,105170,7643
19464,25851,105170,7643
19464,25851,105170,7643
19464,25851,105170,7643
19464,25851,40513,149036
19464,25770,105170,7643
19464,25851,105170,7643
19464,25851,105170,7643
19464,25851,105170,7643
19464,25851,40513,7643
751,63310,871,680
751,142747,871,84531
751,142747,871,680
19464,142747,105170,7643
19464,25851,105170,7643
19464,142747,40513,149036
19464,142747,105170,7643
19464,142747,105170,7643
19464,25851,105170,7643
19464,142747,105170,7643
19464,142747,40513,7643
751,63310,871,84531
751,63310,871,680
19464,63310,105170,84531
19464,63310,105170,7643
19464,63310,40513,84531
751,63310,871,680
19464,63310,105170,84531
19464,25851,105170,7643
19464,63310,105170,84531
19464,63310,40513,84531
751,144836,871,680
751,25851,105170,7643
751,25851,105170,7643
751,25851,105170,149036
751,25770,871,680
19464,25851,105170,7643
751,25851,105170,7643
751,25851,105170,7643
751,25851,105170,7643
19464,25851,105170,7643
19464,25851,105170,7643
19464,25851,105170,149036
12876,25770,105170,7643
19464,25851,105170,7643
52281,25851,105170,7643
19464,25851,105170,7643
19464,25851,105170,7643
19464,25851,105170,7643
19464,25851,105170,149036
12876,25770,105170,7643
19464,25851,105170,7643
52281,25851,105170,7643
19464,25851,105170,7643
19464,25851,105170,7643
12876,25851,40513,149036
12876,25851,69529,7643
19464,25851,105170,7643
19464,25851,105170,7643
19464,25851,105170,7643
12876,25851,40513,7643
12876,25770,40513,149036
19464,25851,40513,149036
52281,25851,40513,149036
12876,25851,40513,149036
12876,25851,40513,149036
19464,25770,105170,7643
12876,25851,69529,7643
12876,25770,69529,7643
12876,25851,69529,7643
19464,25851,105170,7643
19464,25851,105170,7643
19464,25851,40513,7643
52281,25851,105170,7643
52281,25851,40513,69406
12876,25851,40513,7643
